\* antennalocation *\
Minimize
obj_func: 1182 x_(0,_0) + 8494 x_(0,_1) + 8003 x_(0,_2) + 8830 x_(0,_3)
 + 9808 x_(0,_4) + 8192 x_(1,_0) + 5153 x_(1,_1) + 8025 x_(1,_2)
 + 2064 x_(1,_3) + 6759 x_(1,_4) + 2290 x_(2,_0) + 9502 x_(2,_1)
 + 5697 x_(2,_2) + 4732 x_(2,_3) + 3381 x_(2,_4) + 7968 x_(3,_0)
 + 5105 x_(3,_1) + 6116 x_(3,_2) + 1169 x_(3,_3) + 6559 x_(3,_4)
 + 6509 x_(4,_0) + 6552 x_(4,_1) + 9494 x_(4,_2) + 7136 x_(4,_3)
 + 4236 x_(4,_4)
Subject To
2_0_0: z_(0,_0,_0) + z_(0,_0,_1) + z_(0,_0,_2) + z_(0,_0,_3) + z_(0,_0,_4) = 1
2_0_1: z_(0,_1,_0) + z_(0,_1,_1) + z_(0,_1,_2) + z_(0,_1,_3) + z_(0,_1,_4) = 1
2_0_2: z_(0,_2,_0) + z_(0,_2,_1) + z_(0,_2,_2) + z_(0,_2,_3) + z_(0,_2,_4) = 1
2_0_3: z_(0,_3,_0) + z_(0,_3,_1) + z_(0,_3,_2) + z_(0,_3,_3) + z_(0,_3,_4) = 1
2_1_0: z_(1,_0,_0) + z_(1,_0,_1) + z_(1,_0,_2) + z_(1,_0,_3) + z_(1,_0,_4) = 1
2_1_1: z_(1,_1,_0) + z_(1,_1,_1) + z_(1,_1,_2) + z_(1,_1,_3) + z_(1,_1,_4) = 1
2_1_2: z_(1,_2,_0) + z_(1,_2,_1) + z_(1,_2,_2) + z_(1,_2,_3) + z_(1,_2,_4) = 1
2_1_3: z_(1,_3,_0) + z_(1,_3,_1) + z_(1,_3,_2) + z_(1,_3,_3) + z_(1,_3,_4) = 1
2_2_0: z_(2,_0,_0) + z_(2,_0,_1) + z_(2,_0,_2) + z_(2,_0,_3) + z_(2,_0,_4) = 1
2_2_1: z_(2,_1,_0) + z_(2,_1,_1) + z_(2,_1,_2) + z_(2,_1,_3) + z_(2,_1,_4) = 1
2_2_2: z_(2,_2,_0) + z_(2,_2,_1) + z_(2,_2,_2) + z_(2,_2,_3) + z_(2,_2,_4) = 1
2_2_3: z_(2,_3,_0) + z_(2,_3,_1) + z_(2,_3,_2) + z_(2,_3,_3) + z_(2,_3,_4) = 1
2_3_0: z_(3,_0,_0) + z_(3,_0,_1) + z_(3,_0,_2) + z_(3,_0,_3) + z_(3,_0,_4) = 1
2_3_1: z_(3,_1,_0) + z_(3,_1,_1) + z_(3,_1,_2) + z_(3,_1,_3) + z_(3,_1,_4) = 1
2_3_2: z_(3,_2,_0) + z_(3,_2,_1) + z_(3,_2,_2) + z_(3,_2,_3) + z_(3,_2,_4) = 1
2_3_3: z_(3,_3,_0) + z_(3,_3,_1) + z_(3,_3,_2) + z_(3,_3,_3) + z_(3,_3,_4) = 1
3_0_0: - x_(0,_0) - x_(0,_1) - x_(1,_0) - x_(1,_1) - 4 z_(0,_0,_0)
 - 3 z_(0,_0,_1) - 2 z_(0,_0,_2) - z_(0,_0,_3) = -4
3_0_1: - x_(0,_1) - x_(0,_2) - x_(1,_1) - x_(1,_2) - 4 z_(0,_1,_0)
 - 3 z_(0,_1,_1) - 2 z_(0,_1,_2) - z_(0,_1,_3) = -4
3_0_2: - x_(0,_2) - x_(0,_3) - x_(1,_2) - x_(1,_3) - 4 z_(0,_2,_0)
 - 3 z_(0,_2,_1) - 2 z_(0,_2,_2) - z_(0,_2,_3) = -4
3_0_3: - x_(0,_3) - x_(0,_4) - x_(1,_3) - x_(1,_4) - 4 z_(0,_3,_0)
 - 3 z_(0,_3,_1) - 2 z_(0,_3,_2) - z_(0,_3,_3) = -4
3_1_0: - x_(1,_0) - x_(1,_1) - x_(2,_0) - x_(2,_1) - 4 z_(1,_0,_0)
 - 3 z_(1,_0,_1) - 2 z_(1,_0,_2) - z_(1,_0,_3) = -4
3_1_1: - x_(1,_1) - x_(1,_2) - x_(2,_1) - x_(2,_2) - 4 z_(1,_1,_0)
 - 3 z_(1,_1,_1) - 2 z_(1,_1,_2) - z_(1,_1,_3) = -4
3_1_2: - x_(1,_2) - x_(1,_3) - x_(2,_2) - x_(2,_3) - 4 z_(1,_2,_0)
 - 3 z_(1,_2,_1) - 2 z_(1,_2,_2) - z_(1,_2,_3) = -4
3_1_3: - x_(1,_3) - x_(1,_4) - x_(2,_3) - x_(2,_4) - 4 z_(1,_3,_0)
 - 3 z_(1,_3,_1) - 2 z_(1,_3,_2) - z_(1,_3,_3) = -4
3_2_0: - x_(2,_0) - x_(2,_1) - x_(3,_0) - x_(3,_1) - 4 z_(2,_0,_0)
 - 3 z_(2,_0,_1) - 2 z_(2,_0,_2) - z_(2,_0,_3) = -4
3_2_1: - x_(2,_1) - x_(2,_2) - x_(3,_1) - x_(3,_2) - 4 z_(2,_1,_0)
 - 3 z_(2,_1,_1) - 2 z_(2,_1,_2) - z_(2,_1,_3) = -4
3_2_2: - x_(2,_2) - x_(2,_3) - x_(3,_2) - x_(3,_3) - 4 z_(2,_2,_0)
 - 3 z_(2,_2,_1) - 2 z_(2,_2,_2) - z_(2,_2,_3) = -4
3_2_3: - x_(2,_3) - x_(2,_4) - x_(3,_3) - x_(3,_4) - 4 z_(2,_3,_0)
 - 3 z_(2,_3,_1) - 2 z_(2,_3,_2) - z_(2,_3,_3) = -4
3_3_0: - x_(3,_0) - x_(3,_1) - x_(4,_0) - x_(4,_1) - 4 z_(3,_0,_0)
 - 3 z_(3,_0,_1) - 2 z_(3,_0,_2) - z_(3,_0,_3) = -4
3_3_1: - x_(3,_1) - x_(3,_2) - x_(4,_1) - x_(4,_2) - 4 z_(3,_1,_0)
 - 3 z_(3,_1,_1) - 2 z_(3,_1,_2) - z_(3,_1,_3) = -4
3_3_2: - x_(3,_2) - x_(3,_3) - x_(4,_2) - x_(4,_3) - 4 z_(3,_2,_0)
 - 3 z_(3,_2,_1) - 2 z_(3,_2,_2) - z_(3,_2,_3) = -4
3_3_3: - x_(3,_3) - x_(3,_4) - x_(4,_3) - x_(4,_4) - 4 z_(3,_3,_0)
 - 3 z_(3,_3,_1) - 2 z_(3,_3,_2) - z_(3,_3,_3) = -4
4_0_0_0: - 14 x_(0,_0) + 15 z_(0,_0,_0) <= 15
4_0_0_1: q_SE_(0,_0) - 14 x_(0,_0) + 15 z_(0,_0,_1) <= 15
4_0_0_2: 2 q_SE_(0,_0) - 14 x_(0,_0) + 15 z_(0,_0,_2) <= 15
4_0_0_3: 3 q_SE_(0,_0) - 14 x_(0,_0) + 15 z_(0,_0,_3) <= 15
4_0_0_4: 4 q_SE_(0,_0) - 14 x_(0,_0) + 15 z_(0,_0,_4) <= 15
4_0_1_0: - 18 x_(0,_1) + 15 z_(0,_1,_0) <= 15
4_0_1_1: q_SE_(0,_1) - 18 x_(0,_1) + 15 z_(0,_1,_1) <= 15
4_0_1_2: 2 q_SE_(0,_1) - 18 x_(0,_1) + 15 z_(0,_1,_2) <= 15
4_0_1_3: 3 q_SE_(0,_1) - 18 x_(0,_1) + 15 z_(0,_1,_3) <= 15
4_0_1_4: 4 q_SE_(0,_1) - 18 x_(0,_1) + 15 z_(0,_1,_4) <= 15
4_0_2_0: - 15 x_(0,_2) + 15 z_(0,_2,_0) <= 15
4_0_2_1: q_SE_(0,_2) - 15 x_(0,_2) + 15 z_(0,_2,_1) <= 15
4_0_2_2: 2 q_SE_(0,_2) - 15 x_(0,_2) + 15 z_(0,_2,_2) <= 15
4_0_2_3: 3 q_SE_(0,_2) - 15 x_(0,_2) + 15 z_(0,_2,_3) <= 15
4_0_2_4: 4 q_SE_(0,_2) - 15 x_(0,_2) + 15 z_(0,_2,_4) <= 15
4_0_3_0: - 14 x_(0,_3) + 15 z_(0,_3,_0) <= 15
4_0_3_1: q_SE_(0,_3) - 14 x_(0,_3) + 15 z_(0,_3,_1) <= 15
4_0_3_2: 2 q_SE_(0,_3) - 14 x_(0,_3) + 15 z_(0,_3,_2) <= 15
4_0_3_3: 3 q_SE_(0,_3) - 14 x_(0,_3) + 15 z_(0,_3,_3) <= 15
4_0_3_4: 4 q_SE_(0,_3) - 14 x_(0,_3) + 15 z_(0,_3,_4) <= 15
4_1_0_0: - 11 x_(1,_0) + 15 z_(1,_0,_0) <= 15
4_1_0_1: q_SE_(1,_0) - 11 x_(1,_0) + 15 z_(1,_0,_1) <= 15
4_1_0_2: 2 q_SE_(1,_0) - 11 x_(1,_0) + 15 z_(1,_0,_2) <= 15
4_1_0_3: 3 q_SE_(1,_0) - 11 x_(1,_0) + 15 z_(1,_0,_3) <= 15
4_1_0_4: 4 q_SE_(1,_0) - 11 x_(1,_0) + 15 z_(1,_0,_4) <= 15
4_1_1_0: - 16 x_(1,_1) + 15 z_(1,_1,_0) <= 15
4_1_1_1: q_SE_(1,_1) - 16 x_(1,_1) + 15 z_(1,_1,_1) <= 15
4_1_1_2: 2 q_SE_(1,_1) - 16 x_(1,_1) + 15 z_(1,_1,_2) <= 15
4_1_1_3: 3 q_SE_(1,_1) - 16 x_(1,_1) + 15 z_(1,_1,_3) <= 15
4_1_1_4: 4 q_SE_(1,_1) - 16 x_(1,_1) + 15 z_(1,_1,_4) <= 15
4_1_2_0: - 11 x_(1,_2) + 15 z_(1,_2,_0) <= 15
4_1_2_1: q_SE_(1,_2) - 11 x_(1,_2) + 15 z_(1,_2,_1) <= 15
4_1_2_2: 2 q_SE_(1,_2) - 11 x_(1,_2) + 15 z_(1,_2,_2) <= 15
4_1_2_3: 3 q_SE_(1,_2) - 11 x_(1,_2) + 15 z_(1,_2,_3) <= 15
4_1_2_4: 4 q_SE_(1,_2) - 11 x_(1,_2) + 15 z_(1,_2,_4) <= 15
4_1_3_0: - 22 x_(1,_3) + 15 z_(1,_3,_0) <= 15
4_1_3_1: q_SE_(1,_3) - 22 x_(1,_3) + 15 z_(1,_3,_1) <= 15
4_1_3_2: 2 q_SE_(1,_3) - 22 x_(1,_3) + 15 z_(1,_3,_2) <= 15
4_1_3_3: 3 q_SE_(1,_3) - 22 x_(1,_3) + 15 z_(1,_3,_3) <= 15
4_1_3_4: 4 q_SE_(1,_3) - 22 x_(1,_3) + 15 z_(1,_3,_4) <= 15
4_2_0_0: - 24 x_(2,_0) + 15 z_(2,_0,_0) <= 15
4_2_0_1: q_SE_(2,_0) - 24 x_(2,_0) + 15 z_(2,_0,_1) <= 15
4_2_0_2: 2 q_SE_(2,_0) - 24 x_(2,_0) + 15 z_(2,_0,_2) <= 15
4_2_0_3: 3 q_SE_(2,_0) - 24 x_(2,_0) + 15 z_(2,_0,_3) <= 15
4_2_0_4: 4 q_SE_(2,_0) - 24 x_(2,_0) + 15 z_(2,_0,_4) <= 15
4_2_1_0: - 10 x_(2,_1) + 15 z_(2,_1,_0) <= 15
4_2_1_1: q_SE_(2,_1) - 10 x_(2,_1) + 15 z_(2,_1,_1) <= 15
4_2_1_2: 2 q_SE_(2,_1) - 10 x_(2,_1) + 15 z_(2,_1,_2) <= 15
4_2_1_3: 3 q_SE_(2,_1) - 10 x_(2,_1) + 15 z_(2,_1,_3) <= 15
4_2_1_4: 4 q_SE_(2,_1) - 10 x_(2,_1) + 15 z_(2,_1,_4) <= 15
4_2_2_0: - 20 x_(2,_2) + 15 z_(2,_2,_0) <= 15
4_2_2_1: q_SE_(2,_2) - 20 x_(2,_2) + 15 z_(2,_2,_1) <= 15
4_2_2_2: 2 q_SE_(2,_2) - 20 x_(2,_2) + 15 z_(2,_2,_2) <= 15
4_2_2_3: 3 q_SE_(2,_2) - 20 x_(2,_2) + 15 z_(2,_2,_3) <= 15
4_2_2_4: 4 q_SE_(2,_2) - 20 x_(2,_2) + 15 z_(2,_2,_4) <= 15
4_2_3_0: - 13 x_(2,_3) + 15 z_(2,_3,_0) <= 15
4_2_3_1: q_SE_(2,_3) - 13 x_(2,_3) + 15 z_(2,_3,_1) <= 15
4_2_3_2: 2 q_SE_(2,_3) - 13 x_(2,_3) + 15 z_(2,_3,_2) <= 15
4_2_3_3: 3 q_SE_(2,_3) - 13 x_(2,_3) + 15 z_(2,_3,_3) <= 15
4_2_3_4: 4 q_SE_(2,_3) - 13 x_(2,_3) + 15 z_(2,_3,_4) <= 15
4_3_0_0: - 14 x_(3,_0) + 15 z_(3,_0,_0) <= 15
4_3_0_1: q_SE_(3,_0) - 14 x_(3,_0) + 15 z_(3,_0,_1) <= 15
4_3_0_2: 2 q_SE_(3,_0) - 14 x_(3,_0) + 15 z_(3,_0,_2) <= 15
4_3_0_3: 3 q_SE_(3,_0) - 14 x_(3,_0) + 15 z_(3,_0,_3) <= 15
4_3_0_4: 4 q_SE_(3,_0) - 14 x_(3,_0) + 15 z_(3,_0,_4) <= 15
4_3_1_0: - 23 x_(3,_1) + 15 z_(3,_1,_0) <= 15
4_3_1_1: q_SE_(3,_1) - 23 x_(3,_1) + 15 z_(3,_1,_1) <= 15
4_3_1_2: 2 q_SE_(3,_1) - 23 x_(3,_1) + 15 z_(3,_1,_2) <= 15
4_3_1_3: 3 q_SE_(3,_1) - 23 x_(3,_1) + 15 z_(3,_1,_3) <= 15
4_3_1_4: 4 q_SE_(3,_1) - 23 x_(3,_1) + 15 z_(3,_1,_4) <= 15
4_3_2_0: - 2 x_(3,_2) + 15 z_(3,_2,_0) <= 15
4_3_2_1: q_SE_(3,_2) - 2 x_(3,_2) + 15 z_(3,_2,_1) <= 15
4_3_2_2: 2 q_SE_(3,_2) - 2 x_(3,_2) + 15 z_(3,_2,_2) <= 15
4_3_2_3: 3 q_SE_(3,_2) - 2 x_(3,_2) + 15 z_(3,_2,_3) <= 15
4_3_2_4: 4 q_SE_(3,_2) - 2 x_(3,_2) + 15 z_(3,_2,_4) <= 15
4_3_3_0: - 2 x_(3,_3) + 15 z_(3,_3,_0) <= 15
4_3_3_1: q_SE_(3,_3) - 2 x_(3,_3) + 15 z_(3,_3,_1) <= 15
4_3_3_2: 2 q_SE_(3,_3) - 2 x_(3,_3) + 15 z_(3,_3,_2) <= 15
4_3_3_3: 3 q_SE_(3,_3) - 2 x_(3,_3) + 15 z_(3,_3,_3) <= 15
4_3_3_4: 4 q_SE_(3,_3) - 2 x_(3,_3) + 15 z_(3,_3,_4) <= 15
5_0_0_0: - 14 x_(0,_1) + 15 z_(0,_0,_0) <= 15
5_0_0_1: q_SW_(0,_1) - 14 x_(0,_1) + 15 z_(0,_0,_1) <= 15
5_0_0_2: 2 q_SW_(0,_1) - 14 x_(0,_1) + 15 z_(0,_0,_2) <= 15
5_0_0_3: 3 q_SW_(0,_1) - 14 x_(0,_1) + 15 z_(0,_0,_3) <= 15
5_0_0_4: 4 q_SW_(0,_1) - 14 x_(0,_1) + 15 z_(0,_0,_4) <= 15
5_0_1_0: - 18 x_(0,_2) + 15 z_(0,_1,_0) <= 15
5_0_1_1: q_SW_(0,_2) - 18 x_(0,_2) + 15 z_(0,_1,_1) <= 15
5_0_1_2: 2 q_SW_(0,_2) - 18 x_(0,_2) + 15 z_(0,_1,_2) <= 15
5_0_1_3: 3 q_SW_(0,_2) - 18 x_(0,_2) + 15 z_(0,_1,_3) <= 15
5_0_1_4: 4 q_SW_(0,_2) - 18 x_(0,_2) + 15 z_(0,_1,_4) <= 15
5_0_2_0: - 15 x_(0,_3) + 15 z_(0,_2,_0) <= 15
5_0_2_1: q_SW_(0,_3) - 15 x_(0,_3) + 15 z_(0,_2,_1) <= 15
5_0_2_2: 2 q_SW_(0,_3) - 15 x_(0,_3) + 15 z_(0,_2,_2) <= 15
5_0_2_3: 3 q_SW_(0,_3) - 15 x_(0,_3) + 15 z_(0,_2,_3) <= 15
5_0_2_4: 4 q_SW_(0,_3) - 15 x_(0,_3) + 15 z_(0,_2,_4) <= 15
5_0_3_0: - 14 x_(0,_4) + 15 z_(0,_3,_0) <= 15
5_0_3_1: q_SW_(0,_4) - 14 x_(0,_4) + 15 z_(0,_3,_1) <= 15
5_0_3_2: 2 q_SW_(0,_4) - 14 x_(0,_4) + 15 z_(0,_3,_2) <= 15
5_0_3_3: 3 q_SW_(0,_4) - 14 x_(0,_4) + 15 z_(0,_3,_3) <= 15
5_0_3_4: 4 q_SW_(0,_4) - 14 x_(0,_4) + 15 z_(0,_3,_4) <= 15
5_1_0_0: - 11 x_(1,_1) + 15 z_(1,_0,_0) <= 15
5_1_0_1: q_SW_(1,_1) - 11 x_(1,_1) + 15 z_(1,_0,_1) <= 15
5_1_0_2: 2 q_SW_(1,_1) - 11 x_(1,_1) + 15 z_(1,_0,_2) <= 15
5_1_0_3: 3 q_SW_(1,_1) - 11 x_(1,_1) + 15 z_(1,_0,_3) <= 15
5_1_0_4: 4 q_SW_(1,_1) - 11 x_(1,_1) + 15 z_(1,_0,_4) <= 15
5_1_1_0: - 16 x_(1,_2) + 15 z_(1,_1,_0) <= 15
5_1_1_1: q_SW_(1,_2) - 16 x_(1,_2) + 15 z_(1,_1,_1) <= 15
5_1_1_2: 2 q_SW_(1,_2) - 16 x_(1,_2) + 15 z_(1,_1,_2) <= 15
5_1_1_3: 3 q_SW_(1,_2) - 16 x_(1,_2) + 15 z_(1,_1,_3) <= 15
5_1_1_4: 4 q_SW_(1,_2) - 16 x_(1,_2) + 15 z_(1,_1,_4) <= 15
5_1_2_0: - 11 x_(1,_3) + 15 z_(1,_2,_0) <= 15
5_1_2_1: q_SW_(1,_3) - 11 x_(1,_3) + 15 z_(1,_2,_1) <= 15
5_1_2_2: 2 q_SW_(1,_3) - 11 x_(1,_3) + 15 z_(1,_2,_2) <= 15
5_1_2_3: 3 q_SW_(1,_3) - 11 x_(1,_3) + 15 z_(1,_2,_3) <= 15
5_1_2_4: 4 q_SW_(1,_3) - 11 x_(1,_3) + 15 z_(1,_2,_4) <= 15
5_1_3_0: - 22 x_(1,_4) + 15 z_(1,_3,_0) <= 15
5_1_3_1: q_SW_(1,_4) - 22 x_(1,_4) + 15 z_(1,_3,_1) <= 15
5_1_3_2: 2 q_SW_(1,_4) - 22 x_(1,_4) + 15 z_(1,_3,_2) <= 15
5_1_3_3: 3 q_SW_(1,_4) - 22 x_(1,_4) + 15 z_(1,_3,_3) <= 15
5_1_3_4: 4 q_SW_(1,_4) - 22 x_(1,_4) + 15 z_(1,_3,_4) <= 15
5_2_0_0: - 24 x_(2,_1) + 15 z_(2,_0,_0) <= 15
5_2_0_1: q_SW_(2,_1) - 24 x_(2,_1) + 15 z_(2,_0,_1) <= 15
5_2_0_2: 2 q_SW_(2,_1) - 24 x_(2,_1) + 15 z_(2,_0,_2) <= 15
5_2_0_3: 3 q_SW_(2,_1) - 24 x_(2,_1) + 15 z_(2,_0,_3) <= 15
5_2_0_4: 4 q_SW_(2,_1) - 24 x_(2,_1) + 15 z_(2,_0,_4) <= 15
5_2_1_0: - 10 x_(2,_2) + 15 z_(2,_1,_0) <= 15
5_2_1_1: q_SW_(2,_2) - 10 x_(2,_2) + 15 z_(2,_1,_1) <= 15
5_2_1_2: 2 q_SW_(2,_2) - 10 x_(2,_2) + 15 z_(2,_1,_2) <= 15
5_2_1_3: 3 q_SW_(2,_2) - 10 x_(2,_2) + 15 z_(2,_1,_3) <= 15
5_2_1_4: 4 q_SW_(2,_2) - 10 x_(2,_2) + 15 z_(2,_1,_4) <= 15
5_2_2_0: - 20 x_(2,_3) + 15 z_(2,_2,_0) <= 15
5_2_2_1: q_SW_(2,_3) - 20 x_(2,_3) + 15 z_(2,_2,_1) <= 15
5_2_2_2: 2 q_SW_(2,_3) - 20 x_(2,_3) + 15 z_(2,_2,_2) <= 15
5_2_2_3: 3 q_SW_(2,_3) - 20 x_(2,_3) + 15 z_(2,_2,_3) <= 15
5_2_2_4: 4 q_SW_(2,_3) - 20 x_(2,_3) + 15 z_(2,_2,_4) <= 15
5_2_3_0: - 13 x_(2,_4) + 15 z_(2,_3,_0) <= 15
5_2_3_1: q_SW_(2,_4) - 13 x_(2,_4) + 15 z_(2,_3,_1) <= 15
5_2_3_2: 2 q_SW_(2,_4) - 13 x_(2,_4) + 15 z_(2,_3,_2) <= 15
5_2_3_3: 3 q_SW_(2,_4) - 13 x_(2,_4) + 15 z_(2,_3,_3) <= 15
5_2_3_4: 4 q_SW_(2,_4) - 13 x_(2,_4) + 15 z_(2,_3,_4) <= 15
5_3_0_0: - 14 x_(3,_1) + 15 z_(3,_0,_0) <= 15
5_3_0_1: q_SW_(3,_1) - 14 x_(3,_1) + 15 z_(3,_0,_1) <= 15
5_3_0_2: 2 q_SW_(3,_1) - 14 x_(3,_1) + 15 z_(3,_0,_2) <= 15
5_3_0_3: 3 q_SW_(3,_1) - 14 x_(3,_1) + 15 z_(3,_0,_3) <= 15
5_3_0_4: 4 q_SW_(3,_1) - 14 x_(3,_1) + 15 z_(3,_0,_4) <= 15
5_3_1_0: - 23 x_(3,_2) + 15 z_(3,_1,_0) <= 15
5_3_1_1: q_SW_(3,_2) - 23 x_(3,_2) + 15 z_(3,_1,_1) <= 15
5_3_1_2: 2 q_SW_(3,_2) - 23 x_(3,_2) + 15 z_(3,_1,_2) <= 15
5_3_1_3: 3 q_SW_(3,_2) - 23 x_(3,_2) + 15 z_(3,_1,_3) <= 15
5_3_1_4: 4 q_SW_(3,_2) - 23 x_(3,_2) + 15 z_(3,_1,_4) <= 15
5_3_2_0: - 2 x_(3,_3) + 15 z_(3,_2,_0) <= 15
5_3_2_1: q_SW_(3,_3) - 2 x_(3,_3) + 15 z_(3,_2,_1) <= 15
5_3_2_2: 2 q_SW_(3,_3) - 2 x_(3,_3) + 15 z_(3,_2,_2) <= 15
5_3_2_3: 3 q_SW_(3,_3) - 2 x_(3,_3) + 15 z_(3,_2,_3) <= 15
5_3_2_4: 4 q_SW_(3,_3) - 2 x_(3,_3) + 15 z_(3,_2,_4) <= 15
5_3_3_0: - 2 x_(3,_4) + 15 z_(3,_3,_0) <= 15
5_3_3_1: q_SW_(3,_4) - 2 x_(3,_4) + 15 z_(3,_3,_1) <= 15
5_3_3_2: 2 q_SW_(3,_4) - 2 x_(3,_4) + 15 z_(3,_3,_2) <= 15
5_3_3_3: 3 q_SW_(3,_4) - 2 x_(3,_4) + 15 z_(3,_3,_3) <= 15
5_3_3_4: 4 q_SW_(3,_4) - 2 x_(3,_4) + 15 z_(3,_3,_4) <= 15
6_0_0_0: - 14 x_(1,_0) + 15 z_(0,_0,_0) <= 15
6_0_0_1: q_NE_(1,_0) - 14 x_(1,_0) + 15 z_(0,_0,_1) <= 15
6_0_0_2: 2 q_NE_(1,_0) - 14 x_(1,_0) + 15 z_(0,_0,_2) <= 15
6_0_0_3: 3 q_NE_(1,_0) - 14 x_(1,_0) + 15 z_(0,_0,_3) <= 15
6_0_0_4: 4 q_NE_(1,_0) - 14 x_(1,_0) + 15 z_(0,_0,_4) <= 15
6_0_1_0: - 18 x_(1,_1) + 15 z_(0,_1,_0) <= 15
6_0_1_1: q_NE_(1,_1) - 18 x_(1,_1) + 15 z_(0,_1,_1) <= 15
6_0_1_2: 2 q_NE_(1,_1) - 18 x_(1,_1) + 15 z_(0,_1,_2) <= 15
6_0_1_3: 3 q_NE_(1,_1) - 18 x_(1,_1) + 15 z_(0,_1,_3) <= 15
6_0_1_4: 4 q_NE_(1,_1) - 18 x_(1,_1) + 15 z_(0,_1,_4) <= 15
6_0_2_0: - 15 x_(1,_2) + 15 z_(0,_2,_0) <= 15
6_0_2_1: q_NE_(1,_2) - 15 x_(1,_2) + 15 z_(0,_2,_1) <= 15
6_0_2_2: 2 q_NE_(1,_2) - 15 x_(1,_2) + 15 z_(0,_2,_2) <= 15
6_0_2_3: 3 q_NE_(1,_2) - 15 x_(1,_2) + 15 z_(0,_2,_3) <= 15
6_0_2_4: 4 q_NE_(1,_2) - 15 x_(1,_2) + 15 z_(0,_2,_4) <= 15
6_0_3_0: - 14 x_(1,_3) + 15 z_(0,_3,_0) <= 15
6_0_3_1: q_NE_(1,_3) - 14 x_(1,_3) + 15 z_(0,_3,_1) <= 15
6_0_3_2: 2 q_NE_(1,_3) - 14 x_(1,_3) + 15 z_(0,_3,_2) <= 15
6_0_3_3: 3 q_NE_(1,_3) - 14 x_(1,_3) + 15 z_(0,_3,_3) <= 15
6_0_3_4: 4 q_NE_(1,_3) - 14 x_(1,_3) + 15 z_(0,_3,_4) <= 15
6_1_0_0: - 11 x_(2,_0) + 15 z_(1,_0,_0) <= 15
6_1_0_1: q_NE_(2,_0) - 11 x_(2,_0) + 15 z_(1,_0,_1) <= 15
6_1_0_2: 2 q_NE_(2,_0) - 11 x_(2,_0) + 15 z_(1,_0,_2) <= 15
6_1_0_3: 3 q_NE_(2,_0) - 11 x_(2,_0) + 15 z_(1,_0,_3) <= 15
6_1_0_4: 4 q_NE_(2,_0) - 11 x_(2,_0) + 15 z_(1,_0,_4) <= 15
6_1_1_0: - 16 x_(2,_1) + 15 z_(1,_1,_0) <= 15
6_1_1_1: q_NE_(2,_1) - 16 x_(2,_1) + 15 z_(1,_1,_1) <= 15
6_1_1_2: 2 q_NE_(2,_1) - 16 x_(2,_1) + 15 z_(1,_1,_2) <= 15
6_1_1_3: 3 q_NE_(2,_1) - 16 x_(2,_1) + 15 z_(1,_1,_3) <= 15
6_1_1_4: 4 q_NE_(2,_1) - 16 x_(2,_1) + 15 z_(1,_1,_4) <= 15
6_1_2_0: - 11 x_(2,_2) + 15 z_(1,_2,_0) <= 15
6_1_2_1: q_NE_(2,_2) - 11 x_(2,_2) + 15 z_(1,_2,_1) <= 15
6_1_2_2: 2 q_NE_(2,_2) - 11 x_(2,_2) + 15 z_(1,_2,_2) <= 15
6_1_2_3: 3 q_NE_(2,_2) - 11 x_(2,_2) + 15 z_(1,_2,_3) <= 15
6_1_2_4: 4 q_NE_(2,_2) - 11 x_(2,_2) + 15 z_(1,_2,_4) <= 15
6_1_3_0: - 22 x_(2,_3) + 15 z_(1,_3,_0) <= 15
6_1_3_1: q_NE_(2,_3) - 22 x_(2,_3) + 15 z_(1,_3,_1) <= 15
6_1_3_2: 2 q_NE_(2,_3) - 22 x_(2,_3) + 15 z_(1,_3,_2) <= 15
6_1_3_3: 3 q_NE_(2,_3) - 22 x_(2,_3) + 15 z_(1,_3,_3) <= 15
6_1_3_4: 4 q_NE_(2,_3) - 22 x_(2,_3) + 15 z_(1,_3,_4) <= 15
6_2_0_0: - 24 x_(3,_0) + 15 z_(2,_0,_0) <= 15
6_2_0_1: q_NE_(3,_0) - 24 x_(3,_0) + 15 z_(2,_0,_1) <= 15
6_2_0_2: 2 q_NE_(3,_0) - 24 x_(3,_0) + 15 z_(2,_0,_2) <= 15
6_2_0_3: 3 q_NE_(3,_0) - 24 x_(3,_0) + 15 z_(2,_0,_3) <= 15
6_2_0_4: 4 q_NE_(3,_0) - 24 x_(3,_0) + 15 z_(2,_0,_4) <= 15
6_2_1_0: - 10 x_(3,_1) + 15 z_(2,_1,_0) <= 15
6_2_1_1: q_NE_(3,_1) - 10 x_(3,_1) + 15 z_(2,_1,_1) <= 15
6_2_1_2: 2 q_NE_(3,_1) - 10 x_(3,_1) + 15 z_(2,_1,_2) <= 15
6_2_1_3: 3 q_NE_(3,_1) - 10 x_(3,_1) + 15 z_(2,_1,_3) <= 15
6_2_1_4: 4 q_NE_(3,_1) - 10 x_(3,_1) + 15 z_(2,_1,_4) <= 15
6_2_2_0: - 20 x_(3,_2) + 15 z_(2,_2,_0) <= 15
6_2_2_1: q_NE_(3,_2) - 20 x_(3,_2) + 15 z_(2,_2,_1) <= 15
6_2_2_2: 2 q_NE_(3,_2) - 20 x_(3,_2) + 15 z_(2,_2,_2) <= 15
6_2_2_3: 3 q_NE_(3,_2) - 20 x_(3,_2) + 15 z_(2,_2,_3) <= 15
6_2_2_4: 4 q_NE_(3,_2) - 20 x_(3,_2) + 15 z_(2,_2,_4) <= 15
6_2_3_0: - 13 x_(3,_3) + 15 z_(2,_3,_0) <= 15
6_2_3_1: q_NE_(3,_3) - 13 x_(3,_3) + 15 z_(2,_3,_1) <= 15
6_2_3_2: 2 q_NE_(3,_3) - 13 x_(3,_3) + 15 z_(2,_3,_2) <= 15
6_2_3_3: 3 q_NE_(3,_3) - 13 x_(3,_3) + 15 z_(2,_3,_3) <= 15
6_2_3_4: 4 q_NE_(3,_3) - 13 x_(3,_3) + 15 z_(2,_3,_4) <= 15
6_3_0_0: - 14 x_(4,_0) + 15 z_(3,_0,_0) <= 15
6_3_0_1: q_NE_(4,_0) - 14 x_(4,_0) + 15 z_(3,_0,_1) <= 15
6_3_0_2: 2 q_NE_(4,_0) - 14 x_(4,_0) + 15 z_(3,_0,_2) <= 15
6_3_0_3: 3 q_NE_(4,_0) - 14 x_(4,_0) + 15 z_(3,_0,_3) <= 15
6_3_0_4: 4 q_NE_(4,_0) - 14 x_(4,_0) + 15 z_(3,_0,_4) <= 15
6_3_1_0: - 23 x_(4,_1) + 15 z_(3,_1,_0) <= 15
6_3_1_1: q_NE_(4,_1) - 23 x_(4,_1) + 15 z_(3,_1,_1) <= 15
6_3_1_2: 2 q_NE_(4,_1) - 23 x_(4,_1) + 15 z_(3,_1,_2) <= 15
6_3_1_3: 3 q_NE_(4,_1) - 23 x_(4,_1) + 15 z_(3,_1,_3) <= 15
6_3_1_4: 4 q_NE_(4,_1) - 23 x_(4,_1) + 15 z_(3,_1,_4) <= 15
6_3_2_0: - 2 x_(4,_2) + 15 z_(3,_2,_0) <= 15
6_3_2_1: q_NE_(4,_2) - 2 x_(4,_2) + 15 z_(3,_2,_1) <= 15
6_3_2_2: 2 q_NE_(4,_2) - 2 x_(4,_2) + 15 z_(3,_2,_2) <= 15
6_3_2_3: 3 q_NE_(4,_2) - 2 x_(4,_2) + 15 z_(3,_2,_3) <= 15
6_3_2_4: 4 q_NE_(4,_2) - 2 x_(4,_2) + 15 z_(3,_2,_4) <= 15
6_3_3_0: - 2 x_(4,_3) + 15 z_(3,_3,_0) <= 15
6_3_3_1: q_NE_(4,_3) - 2 x_(4,_3) + 15 z_(3,_3,_1) <= 15
6_3_3_2: 2 q_NE_(4,_3) - 2 x_(4,_3) + 15 z_(3,_3,_2) <= 15
6_3_3_3: 3 q_NE_(4,_3) - 2 x_(4,_3) + 15 z_(3,_3,_3) <= 15
6_3_3_4: 4 q_NE_(4,_3) - 2 x_(4,_3) + 15 z_(3,_3,_4) <= 15
7_0_0_0: - 14 x_(1,_1) + 15 z_(0,_0,_0) <= 15
7_0_0_1: q_NW_(1,_1) - 14 x_(1,_1) + 15 z_(0,_0,_1) <= 15
7_0_0_2: 2 q_NW_(1,_1) - 14 x_(1,_1) + 15 z_(0,_0,_2) <= 15
7_0_0_3: 3 q_NW_(1,_1) - 14 x_(1,_1) + 15 z_(0,_0,_3) <= 15
7_0_0_4: 4 q_NW_(1,_1) - 14 x_(1,_1) + 15 z_(0,_0,_4) <= 15
7_0_1_0: - 18 x_(1,_2) + 15 z_(0,_1,_0) <= 15
7_0_1_1: q_NW_(1,_2) - 18 x_(1,_2) + 15 z_(0,_1,_1) <= 15
7_0_1_2: 2 q_NW_(1,_2) - 18 x_(1,_2) + 15 z_(0,_1,_2) <= 15
7_0_1_3: 3 q_NW_(1,_2) - 18 x_(1,_2) + 15 z_(0,_1,_3) <= 15
7_0_1_4: 4 q_NW_(1,_2) - 18 x_(1,_2) + 15 z_(0,_1,_4) <= 15
7_0_2_0: - 15 x_(1,_3) + 15 z_(0,_2,_0) <= 15
7_0_2_1: q_NW_(1,_3) - 15 x_(1,_3) + 15 z_(0,_2,_1) <= 15
7_0_2_2: 2 q_NW_(1,_3) - 15 x_(1,_3) + 15 z_(0,_2,_2) <= 15
7_0_2_3: 3 q_NW_(1,_3) - 15 x_(1,_3) + 15 z_(0,_2,_3) <= 15
7_0_2_4: 4 q_NW_(1,_3) - 15 x_(1,_3) + 15 z_(0,_2,_4) <= 15
7_0_3_0: - 14 x_(1,_4) + 15 z_(0,_3,_0) <= 15
7_0_3_1: q_NW_(1,_4) - 14 x_(1,_4) + 15 z_(0,_3,_1) <= 15
7_0_3_2: 2 q_NW_(1,_4) - 14 x_(1,_4) + 15 z_(0,_3,_2) <= 15
7_0_3_3: 3 q_NW_(1,_4) - 14 x_(1,_4) + 15 z_(0,_3,_3) <= 15
7_0_3_4: 4 q_NW_(1,_4) - 14 x_(1,_4) + 15 z_(0,_3,_4) <= 15
7_1_0_0: - 11 x_(2,_1) + 15 z_(1,_0,_0) <= 15
7_1_0_1: q_NW_(2,_1) - 11 x_(2,_1) + 15 z_(1,_0,_1) <= 15
7_1_0_2: 2 q_NW_(2,_1) - 11 x_(2,_1) + 15 z_(1,_0,_2) <= 15
7_1_0_3: 3 q_NW_(2,_1) - 11 x_(2,_1) + 15 z_(1,_0,_3) <= 15
7_1_0_4: 4 q_NW_(2,_1) - 11 x_(2,_1) + 15 z_(1,_0,_4) <= 15
7_1_1_0: - 16 x_(2,_2) + 15 z_(1,_1,_0) <= 15
7_1_1_1: q_NW_(2,_2) - 16 x_(2,_2) + 15 z_(1,_1,_1) <= 15
7_1_1_2: 2 q_NW_(2,_2) - 16 x_(2,_2) + 15 z_(1,_1,_2) <= 15
7_1_1_3: 3 q_NW_(2,_2) - 16 x_(2,_2) + 15 z_(1,_1,_3) <= 15
7_1_1_4: 4 q_NW_(2,_2) - 16 x_(2,_2) + 15 z_(1,_1,_4) <= 15
7_1_2_0: - 11 x_(2,_3) + 15 z_(1,_2,_0) <= 15
7_1_2_1: q_NW_(2,_3) - 11 x_(2,_3) + 15 z_(1,_2,_1) <= 15
7_1_2_2: 2 q_NW_(2,_3) - 11 x_(2,_3) + 15 z_(1,_2,_2) <= 15
7_1_2_3: 3 q_NW_(2,_3) - 11 x_(2,_3) + 15 z_(1,_2,_3) <= 15
7_1_2_4: 4 q_NW_(2,_3) - 11 x_(2,_3) + 15 z_(1,_2,_4) <= 15
7_1_3_0: - 22 x_(2,_4) + 15 z_(1,_3,_0) <= 15
7_1_3_1: q_NW_(2,_4) - 22 x_(2,_4) + 15 z_(1,_3,_1) <= 15
7_1_3_2: 2 q_NW_(2,_4) - 22 x_(2,_4) + 15 z_(1,_3,_2) <= 15
7_1_3_3: 3 q_NW_(2,_4) - 22 x_(2,_4) + 15 z_(1,_3,_3) <= 15
7_1_3_4: 4 q_NW_(2,_4) - 22 x_(2,_4) + 15 z_(1,_3,_4) <= 15
7_2_0_0: - 24 x_(3,_1) + 15 z_(2,_0,_0) <= 15
7_2_0_1: q_NW_(3,_1) - 24 x_(3,_1) + 15 z_(2,_0,_1) <= 15
7_2_0_2: 2 q_NW_(3,_1) - 24 x_(3,_1) + 15 z_(2,_0,_2) <= 15
7_2_0_3: 3 q_NW_(3,_1) - 24 x_(3,_1) + 15 z_(2,_0,_3) <= 15
7_2_0_4: 4 q_NW_(3,_1) - 24 x_(3,_1) + 15 z_(2,_0,_4) <= 15
7_2_1_0: - 10 x_(3,_2) + 15 z_(2,_1,_0) <= 15
7_2_1_1: q_NW_(3,_2) - 10 x_(3,_2) + 15 z_(2,_1,_1) <= 15
7_2_1_2: 2 q_NW_(3,_2) - 10 x_(3,_2) + 15 z_(2,_1,_2) <= 15
7_2_1_3: 3 q_NW_(3,_2) - 10 x_(3,_2) + 15 z_(2,_1,_3) <= 15
7_2_1_4: 4 q_NW_(3,_2) - 10 x_(3,_2) + 15 z_(2,_1,_4) <= 15
7_2_2_0: - 20 x_(3,_3) + 15 z_(2,_2,_0) <= 15
7_2_2_1: q_NW_(3,_3) - 20 x_(3,_3) + 15 z_(2,_2,_1) <= 15
7_2_2_2: 2 q_NW_(3,_3) - 20 x_(3,_3) + 15 z_(2,_2,_2) <= 15
7_2_2_3: 3 q_NW_(3,_3) - 20 x_(3,_3) + 15 z_(2,_2,_3) <= 15
7_2_2_4: 4 q_NW_(3,_3) - 20 x_(3,_3) + 15 z_(2,_2,_4) <= 15
7_2_3_0: - 13 x_(3,_4) + 15 z_(2,_3,_0) <= 15
7_2_3_1: q_NW_(3,_4) - 13 x_(3,_4) + 15 z_(2,_3,_1) <= 15
7_2_3_2: 2 q_NW_(3,_4) - 13 x_(3,_4) + 15 z_(2,_3,_2) <= 15
7_2_3_3: 3 q_NW_(3,_4) - 13 x_(3,_4) + 15 z_(2,_3,_3) <= 15
7_2_3_4: 4 q_NW_(3,_4) - 13 x_(3,_4) + 15 z_(2,_3,_4) <= 15
7_3_0_0: - 14 x_(4,_1) + 15 z_(3,_0,_0) <= 15
7_3_0_1: q_NW_(4,_1) - 14 x_(4,_1) + 15 z_(3,_0,_1) <= 15
7_3_0_2: 2 q_NW_(4,_1) - 14 x_(4,_1) + 15 z_(3,_0,_2) <= 15
7_3_0_3: 3 q_NW_(4,_1) - 14 x_(4,_1) + 15 z_(3,_0,_3) <= 15
7_3_0_4: 4 q_NW_(4,_1) - 14 x_(4,_1) + 15 z_(3,_0,_4) <= 15
7_3_1_0: - 23 x_(4,_2) + 15 z_(3,_1,_0) <= 15
7_3_1_1: q_NW_(4,_2) - 23 x_(4,_2) + 15 z_(3,_1,_1) <= 15
7_3_1_2: 2 q_NW_(4,_2) - 23 x_(4,_2) + 15 z_(3,_1,_2) <= 15
7_3_1_3: 3 q_NW_(4,_2) - 23 x_(4,_2) + 15 z_(3,_1,_3) <= 15
7_3_1_4: 4 q_NW_(4,_2) - 23 x_(4,_2) + 15 z_(3,_1,_4) <= 15
7_3_2_0: - 2 x_(4,_3) + 15 z_(3,_2,_0) <= 15
7_3_2_1: q_NW_(4,_3) - 2 x_(4,_3) + 15 z_(3,_2,_1) <= 15
7_3_2_2: 2 q_NW_(4,_3) - 2 x_(4,_3) + 15 z_(3,_2,_2) <= 15
7_3_2_3: 3 q_NW_(4,_3) - 2 x_(4,_3) + 15 z_(3,_2,_3) <= 15
7_3_2_4: 4 q_NW_(4,_3) - 2 x_(4,_3) + 15 z_(3,_2,_4) <= 15
7_3_3_0: - 2 x_(4,_4) + 15 z_(3,_3,_0) <= 15
7_3_3_1: q_NW_(4,_4) - 2 x_(4,_4) + 15 z_(3,_3,_1) <= 15
7_3_3_2: 2 q_NW_(4,_4) - 2 x_(4,_4) + 15 z_(3,_3,_2) <= 15
7_3_3_3: 3 q_NW_(4,_4) - 2 x_(4,_4) + 15 z_(3,_3,_3) <= 15
7_3_3_4: 4 q_NW_(4,_4) - 2 x_(4,_4) + 15 z_(3,_3,_4) <= 15
8_0_0: q_(0,_0) - q_NE_(0,_0) - q_NW_(0,_0) - q_SE_(0,_0) - q_SW_(0,_0) = 0
8_0_1: q_(0,_1) - q_NE_(0,_1) - q_NW_(0,_1) - q_SE_(0,_1) - q_SW_(0,_1) = 0
8_0_2: q_(0,_2) - q_NE_(0,_2) - q_NW_(0,_2) - q_SE_(0,_2) - q_SW_(0,_2) = 0
8_0_3: q_(0,_3) - q_NE_(0,_3) - q_NW_(0,_3) - q_SE_(0,_3) - q_SW_(0,_3) = 0
8_0_4: q_(0,_4) - q_NE_(0,_4) - q_NW_(0,_4) - q_SE_(0,_4) - q_SW_(0,_4) = 0
8_1_0: q_(1,_0) - q_NE_(1,_0) - q_NW_(1,_0) - q_SE_(1,_0) - q_SW_(1,_0) = 0
8_1_1: q_(1,_1) - q_NE_(1,_1) - q_NW_(1,_1) - q_SE_(1,_1) - q_SW_(1,_1) = 0
8_1_2: q_(1,_2) - q_NE_(1,_2) - q_NW_(1,_2) - q_SE_(1,_2) - q_SW_(1,_2) = 0
8_1_3: q_(1,_3) - q_NE_(1,_3) - q_NW_(1,_3) - q_SE_(1,_3) - q_SW_(1,_3) = 0
8_1_4: q_(1,_4) - q_NE_(1,_4) - q_NW_(1,_4) - q_SE_(1,_4) - q_SW_(1,_4) = 0
8_2_0: q_(2,_0) - q_NE_(2,_0) - q_NW_(2,_0) - q_SE_(2,_0) - q_SW_(2,_0) = 0
8_2_1: q_(2,_1) - q_NE_(2,_1) - q_NW_(2,_1) - q_SE_(2,_1) - q_SW_(2,_1) = 0
8_2_2: q_(2,_2) - q_NE_(2,_2) - q_NW_(2,_2) - q_SE_(2,_2) - q_SW_(2,_2) = 0
8_2_3: q_(2,_3) - q_NE_(2,_3) - q_NW_(2,_3) - q_SE_(2,_3) - q_SW_(2,_3) = 0
8_2_4: q_(2,_4) - q_NE_(2,_4) - q_NW_(2,_4) - q_SE_(2,_4) - q_SW_(2,_4) = 0
8_3_0: q_(3,_0) - q_NE_(3,_0) - q_NW_(3,_0) - q_SE_(3,_0) - q_SW_(3,_0) = 0
8_3_1: q_(3,_1) - q_NE_(3,_1) - q_NW_(3,_1) - q_SE_(3,_1) - q_SW_(3,_1) = 0
8_3_2: q_(3,_2) - q_NE_(3,_2) - q_NW_(3,_2) - q_SE_(3,_2) - q_SW_(3,_2) = 0
8_3_3: q_(3,_3) - q_NE_(3,_3) - q_NW_(3,_3) - q_SE_(3,_3) - q_SW_(3,_3) = 0
8_3_4: q_(3,_4) - q_NE_(3,_4) - q_NW_(3,_4) - q_SE_(3,_4) - q_SW_(3,_4) = 0
8_4_0: q_(4,_0) - q_NE_(4,_0) - q_NW_(4,_0) - q_SE_(4,_0) - q_SW_(4,_0) = 0
8_4_1: q_(4,_1) - q_NE_(4,_1) - q_NW_(4,_1) - q_SE_(4,_1) - q_SW_(4,_1) = 0
8_4_2: q_(4,_2) - q_NE_(4,_2) - q_NW_(4,_2) - q_SE_(4,_2) - q_SW_(4,_2) = 0
8_4_3: q_(4,_3) - q_NE_(4,_3) - q_NW_(4,_3) - q_SE_(4,_3) - q_SW_(4,_3) = 0
8_4_4: q_(4,_4) - q_NE_(4,_4) - q_NW_(4,_4) - q_SE_(4,_4) - q_SW_(4,_4) = 0
9_0_0: q_(0,_0) - 15 x_(0,_0) <= 0
9_0_1: q_(0,_1) - 15 x_(0,_1) <= 0
9_0_2: q_(0,_2) - 15 x_(0,_2) <= 0
9_0_3: q_(0,_3) - 15 x_(0,_3) <= 0
9_0_4: q_(0,_4) - 15 x_(0,_4) <= 0
9_1_0: q_(1,_0) - 15 x_(1,_0) <= 0
9_1_1: q_(1,_1) - 15 x_(1,_1) <= 0
9_1_2: q_(1,_2) - 15 x_(1,_2) <= 0
9_1_3: q_(1,_3) - 15 x_(1,_3) <= 0
9_1_4: q_(1,_4) - 15 x_(1,_4) <= 0
9_2_0: q_(2,_0) - 15 x_(2,_0) <= 0
9_2_1: q_(2,_1) - 15 x_(2,_1) <= 0
9_2_2: q_(2,_2) - 15 x_(2,_2) <= 0
9_2_3: q_(2,_3) - 15 x_(2,_3) <= 0
9_2_4: q_(2,_4) - 15 x_(2,_4) <= 0
9_3_0: q_(3,_0) - 15 x_(3,_0) <= 0
9_3_1: q_(3,_1) - 15 x_(3,_1) <= 0
9_3_2: q_(3,_2) - 15 x_(3,_2) <= 0
9_3_3: q_(3,_3) - 15 x_(3,_3) <= 0
9_3_4: q_(3,_4) - 15 x_(3,_4) <= 0
9_4_0: q_(4,_0) - 15 x_(4,_0) <= 0
9_4_1: q_(4,_1) - 15 x_(4,_1) <= 0
9_4_2: q_(4,_2) - 15 x_(4,_2) <= 0
9_4_3: q_(4,_3) - 15 x_(4,_3) <= 0
9_4_4: q_(4,_4) - 15 x_(4,_4) <= 0
lina_0_0: q_NE_(1,_0) + q_NW_(1,_1) + q_SE_(0,_0) + q_SW_(0,_1) = 14
lina_0_1: q_NE_(1,_1) + q_NW_(1,_2) + q_SE_(0,_1) + q_SW_(0,_2) = 18
lina_0_2: q_NE_(1,_2) + q_NW_(1,_3) + q_SE_(0,_2) + q_SW_(0,_3) = 15
lina_0_3: q_NE_(1,_3) + q_NW_(1,_4) + q_SE_(0,_3) + q_SW_(0,_4) = 14
lina_1_0: q_NE_(2,_0) + q_NW_(2,_1) + q_SE_(1,_0) + q_SW_(1,_1) = 11
lina_1_1: q_NE_(2,_1) + q_NW_(2,_2) + q_SE_(1,_1) + q_SW_(1,_2) = 16
lina_1_2: q_NE_(2,_2) + q_NW_(2,_3) + q_SE_(1,_2) + q_SW_(1,_3) = 11
lina_1_3: q_NE_(2,_3) + q_NW_(2,_4) + q_SE_(1,_3) + q_SW_(1,_4) = 22
lina_2_0: q_NE_(3,_0) + q_NW_(3,_1) + q_SE_(2,_0) + q_SW_(2,_1) = 24
lina_2_1: q_NE_(3,_1) + q_NW_(3,_2) + q_SE_(2,_1) + q_SW_(2,_2) = 10
lina_2_2: q_NE_(3,_2) + q_NW_(3,_3) + q_SE_(2,_2) + q_SW_(2,_3) = 20
lina_2_3: q_NE_(3,_3) + q_NW_(3,_4) + q_SE_(2,_3) + q_SW_(2,_4) = 13
lina_3_0: q_NE_(4,_0) + q_NW_(4,_1) + q_SE_(3,_0) + q_SW_(3,_1) = 14
lina_3_1: q_NE_(4,_1) + q_NW_(4,_2) + q_SE_(3,_1) + q_SW_(3,_2) = 23
lina_3_2: q_NE_(4,_2) + q_NW_(4,_3) + q_SE_(3,_2) + q_SW_(3,_3) = 2
lina_3_3: q_NE_(4,_3) + q_NW_(4,_4) + q_SE_(3,_3) + q_SW_(3,_4) = 2
Binaries
x_(0,_0)
x_(0,_1)
x_(0,_2)
x_(0,_3)
x_(0,_4)
x_(1,_0)
x_(1,_1)
x_(1,_2)
x_(1,_3)
x_(1,_4)
x_(2,_0)
x_(2,_1)
x_(2,_2)
x_(2,_3)
x_(2,_4)
x_(3,_0)
x_(3,_1)
x_(3,_2)
x_(3,_3)
x_(3,_4)
x_(4,_0)
x_(4,_1)
x_(4,_2)
x_(4,_3)
x_(4,_4)
z_(0,_0,_0)
z_(0,_0,_1)
z_(0,_0,_2)
z_(0,_0,_3)
z_(0,_0,_4)
z_(0,_1,_0)
z_(0,_1,_1)
z_(0,_1,_2)
z_(0,_1,_3)
z_(0,_1,_4)
z_(0,_2,_0)
z_(0,_2,_1)
z_(0,_2,_2)
z_(0,_2,_3)
z_(0,_2,_4)
z_(0,_3,_0)
z_(0,_3,_1)
z_(0,_3,_2)
z_(0,_3,_3)
z_(0,_3,_4)
z_(1,_0,_0)
z_(1,_0,_1)
z_(1,_0,_2)
z_(1,_0,_3)
z_(1,_0,_4)
z_(1,_1,_0)
z_(1,_1,_1)
z_(1,_1,_2)
z_(1,_1,_3)
z_(1,_1,_4)
z_(1,_2,_0)
z_(1,_2,_1)
z_(1,_2,_2)
z_(1,_2,_3)
z_(1,_2,_4)
z_(1,_3,_0)
z_(1,_3,_1)
z_(1,_3,_2)
z_(1,_3,_3)
z_(1,_3,_4)
z_(2,_0,_0)
z_(2,_0,_1)
z_(2,_0,_2)
z_(2,_0,_3)
z_(2,_0,_4)
z_(2,_1,_0)
z_(2,_1,_1)
z_(2,_1,_2)
z_(2,_1,_3)
z_(2,_1,_4)
z_(2,_2,_0)
z_(2,_2,_1)
z_(2,_2,_2)
z_(2,_2,_3)
z_(2,_2,_4)
z_(2,_3,_0)
z_(2,_3,_1)
z_(2,_3,_2)
z_(2,_3,_3)
z_(2,_3,_4)
z_(3,_0,_0)
z_(3,_0,_1)
z_(3,_0,_2)
z_(3,_0,_3)
z_(3,_0,_4)
z_(3,_1,_0)
z_(3,_1,_1)
z_(3,_1,_2)
z_(3,_1,_3)
z_(3,_1,_4)
z_(3,_2,_0)
z_(3,_2,_1)
z_(3,_2,_2)
z_(3,_2,_3)
z_(3,_2,_4)
z_(3,_3,_0)
z_(3,_3,_1)
z_(3,_3,_2)
z_(3,_3,_3)
z_(3,_3,_4)
End
